NAME          
ROWS
 N  OBJ
 L  c1
 L  c2
 L  c3
COLUMNS
    MARKER    'MARKER'                 'INTORG'
    x[1]      c1        92
    x[1]      c2        43
    x[1]      c3        26
    x[1]      OBJ       -855
    x[2]      c1        336
    x[2]      c2        507
    x[2]      c3        804
    x[2]      OBJ       -989
    x[3]      c1        157
    x[3]      c2        823
    x[3]      c3        125
    x[3]      OBJ       -545
    x[4]      c1        847
    x[4]      c2        389
    x[4]      c3        792
    x[4]      OBJ       -483
    x[5]      c1        584
    x[5]      c2        279
    x[5]      c3        337
    x[5]      OBJ       -237
    x[6]      c1        840
    x[6]      c2        231
    x[6]      c3        824
    x[6]      OBJ       -877
    x[7]      c1        560
    x[7]      c2        989
    x[7]      c3        627
    x[7]      OBJ       -448
    x[8]      c1        716
    x[8]      c2        364
    x[8]      c3        17
    x[8]      OBJ       -451
    x[9]      c1        585
    x[9]      c2        318
    x[9]      c3        345
    x[9]      OBJ       -476
    x[10]     c1        514
    x[10]     c2        336
    x[10]     c3        375
    x[10]     OBJ       -33
RHS
    rhs       c1        2616
    rhs       c2        2140
    rhs       c3        2136
RANGES
BOUNDS
 LO bounds    x[1]      0
 PL bounds    x[1]
 LO bounds    x[2]      0
 PL bounds    x[2]
 LO bounds    x[3]      0
 PL bounds    x[3]
 LO bounds    x[4]      0
 PL bounds    x[4]
 LO bounds    x[5]      0
 PL bounds    x[5]
 LO bounds    x[6]      0
 PL bounds    x[6]
 LO bounds    x[7]      0
 PL bounds    x[7]
 LO bounds    x[8]      0
 PL bounds    x[8]
 LO bounds    x[9]      0
 PL bounds    x[9]
 LO bounds    x[10]     0
 PL bounds    x[10]
ENDATA
